Version identifier: 20.1.0.0 | 2020-11-10 | 9bedb6d68
Tried aggregator 2 times.
MIP Presolve eliminated 1189 rows and 588 columns.
MIP Presolve modified 3200 coefficients.
Aggregator did 140 substitutions.
Reduced MIP has 1880 rows, 1487 columns, and 6168 nonzeros.
Reduced MIP has 303 binaries, 1184 generals, 0 SOSs, and 0 indicators.
Presolve time = 0.02 sec. (7.47 ticks)
Found incumbent of value 2731.000000 after 0.03 sec. (15.15 ticks)
Probing fixed 40 vars, tightened 457 bounds.
Probing time = 0.00 sec. (1.25 ticks)
Tried aggregator 2 times.
Detecting symmetries...
MIP Presolve eliminated 774 rows and 40 columns.
MIP Presolve modified 149 coefficients.
Aggregator did 6 substitutions.
Reduced MIP has 1100 rows, 1441 columns, and 3600 nonzeros.
Reduced MIP has 419 binaries, 1022 generals, 0 SOSs, and 0 indicators.
Presolve time = 0.01 sec. (4.95 ticks)
Probing time = 0.00 sec. (0.27 ticks)
Clique table members: 5.
MIP emphasis: balance optimality and feasibility.
MIP search method: dynamic search.
Parallel mode: deterministic, using up to 24 threads.
Root relaxation solution time = 0.01 sec. (2.69 ticks)

        Nodes                                         Cuts/
   Node  Left     Objective  IInf  Best Integer    Best Bound    ItCnt     Gap

*     0+    0                         2731.0000        0.0000           100.00%
      0     0        0.0000    62     2731.0000        0.0000      288  100.00%
*     0+    0                           14.0000        0.0000           100.00%
      0     0        0.0000    82       14.0000     Cuts: 185      422  100.00%
      0     0        0.0000    85       14.0000     Cuts: 145      536  100.00%
*     0+    0                           11.0000        0.0000           100.00%
      0     0        cutoff             11.0000       11.0000      536    0.00%
Elapsed time = 0.71 sec. (111.19 ticks, tree = 0.01 MB, solutions = 3)

Implied bound cuts applied:  74
Flow cuts applied:  1
Mixed integer rounding cuts applied:  5
Zero-half cuts applied:  72
Lift and project cuts applied:  14
Gomory fractional cuts applied:  31

Root node processing (before b&c):
  Real time             =    0.71 sec. (111.31 ticks)
Parallel b&c, 24 threads:
  Real time             =    0.00 sec. (0.00 ticks)
  Sync time (average)   =    0.00 sec.
  Wait time (average)   =    0.00 sec.
                          ------------
Total (root+branch&cut) =    0.71 sec. (111.31 ticks)

Solution status = Optimal
Solution LB = 11
Solution UB = 11
Runtime = 0.717015 seconds
	Command being timed: "/home/min/git_repos/CS598MEBProject/CNT-ILP/build/cnt -s 2 ./output/k8_n20/simC_c1_k8_n20_u2_s1_del04.input-left.cnp"
	User time (seconds): 10.44
	System time (seconds): 0.08
	Percent of CPU this job got: 1373%
	Elapsed (wall clock) time (h:mm:ss or m:ss): 0:00.76
	Average shared text size (kbytes): 0
	Average unshared data size (kbytes): 0
	Average stack size (kbytes): 0
	Average total size (kbytes): 0
	Maximum resident set size (kbytes): 104100
	Average resident set size (kbytes): 0
	Major (requiring I/O) page faults: 0
	Minor (reclaiming a frame) page faults: 23074
	Voluntary context switches: 5152
	Involuntary context switches: 1315
	Swaps: 0
	File system inputs: 0
	File system outputs: 16
	Socket messages sent: 0
	Socket messages received: 0
	Signals delivered: 0
	Page size (bytes): 4096
	Exit status: 0
